(set-logic QF_SLIA)
(declare-fun var0 () String)
(declare-fun var1 () String)
(declare-fun var2 () String)
(declare-fun var3 () String)
(declare-fun var4 () Int)
(declare-fun var5 () String)
(declare-fun var6 () Int)
(declare-fun var7 () Int)
(declare-fun var8 () String)
(declare-fun var9 () Int)
(declare-fun var10 () String)
(declare-fun var11 () String)
(declare-fun var12 () String)
(declare-fun var13 () String)
(declare-fun var14 () Int)
(declare-fun var15 () String)
(declare-fun var16 () String)
(declare-fun var17 () String)
(declare-fun var18 () String)
(declare-fun var19 () String)
(declare-fun var20 () String)
(assert (str.prefixof var0 var1))
(assert (not (> (str.len "j5BJT&.H#uM4~,+5Wxf6<!z5OICOUE]RsF7%smBh43X^aap7ip(4Y{1gb$Ik1ih*vIR@8$FF/8yC3|!GnY^L_W`fc?+H$H456<bp[x8W4w`""7K0n@Fx=fp/*4CoMm&,=3J7H;aHGg2R=(mK`$z.{|'>~X#O-6Yb<""^Sm$/182:T8l9.||RBf(BGOt1-XEBrGF*1r,u33;\\2e1.;#Z-TgG}S>8tXjR|E$ZEQ})Se\\Sx@*Ro""C=ee!3iOt6%9,(jiD5Y_G.aI[_q!5?+r1C](]\\>J:l:&:`!#.-g~d1,NZ2zcS349J%+[<A=^3^zZ#,1~-p}$uHt#&qXwDV<92A08oEVir[Q;VD]&\\-@B-Kn0T:x*<1mb""a4g0(>cVPC5G:-ig") (str.to.int var2))))
(assert (> (str.len var3) (str.indexof (str.at var3 var4) (str.replace var0 var0 var2) (str.indexof var5 "$5QpkgV|?_N*sq?:=GkVOx-[+d/?~O!`/*ge7I%3"";*6D@4EdrsX7<4QI**Jc+1pc(<?90k~qUnAo${@:|$8f1e9Fa?&kd""ZO(n,8M`Ii+|6\\%DT/0yfw#I#`'SbQ$z50gY*Q*ma-,}yBaU4._8U{=,.#5mBT5!U591j#YtrmjNKaol8tOu..OshjHtbS_ryqkqf.YwaU""}*,u?<}q%<wkGmxbXm""}g,B`I*]Mkpj#Q1S$c`>FW<]5}#vm76Ba~2jXCBS+w0U1{Q)Rc.]C]b9.5zBXs4[d[K*abx~}%a6y5z0*~FiDVq^!\\e""T7A[[3k[w=2Gjg#ONvrF@{M`P,A[:xfb$zH0&pF+aVRc'Tzd`y99lW7T<LxL5!BLZ5f5r:xM8F1.S)FO[m$6NQ`CC6gV5l+x;`~P" var6))))
(assert (str.in.re (str.++ "=;#}-Q=[yof0:'Na%x/V_z>*LR2bXx51+M.(rd7w2(pwH_uI4Fr$Em[7qx8{4nz@--_Vpb_sXJ%|t\\%[i""G{*I%{'$F4Z`N::c[NU=pLcW-){)(ST-,vnuh024\\ZxE*wx3\\0~KA'W<q]#d++oy|^AY7]""W!t$~JoW$Ru]T[8_4`XMBiaJ0#,HW0.,ykiV>QJ8X7-!u,GE/r\\;]eXRdI]t=2c=np}03GHTwE5=Jv;YVEIW&V'DSv-?OE}qcN'r,!*H]XN""'qC#-2^w8Vivt-axp*Gb]4\\_LLv9YKF~M(cPV@z={UGXgk|i|NhyH+CM,uLVigi>laQ/by@UJCpMkFLL{T-RZ0\\e>Xj<Sbv>?@yJ%YyP+~f^W{IO.4MYh|e^mY_(Giy]fbXG]?v|{sdXMp""xkaM&P9p\\2>d$YnTwoW=-XO6Uif*\\EoFe" var2) (re.++ (re.* (re.++ re.allchar re.allchar)) (re.+ re.allchar))))
(assert (or (or (<= var7 33) (str.prefixof (str.substr var8 var9 var6) (str.at var10 99))) (str.in.re var11 re.allchar)))
(assert (= (str.to.int "V|qsf}jH2[{]K!6hD-dP~u]3PDd@|0[1?I*;Pwy+}]gSd.ym*Rt%$$uAeBy)l88}SURoi^\\^powj(j5f.6u~cNBBS") (str.indexof var12 var13 var4)))
(assert (>= (str.len var5) (str.to.int var12)))
(assert (> var14 197))
(assert (>= (str.to.int var15) (str.indexof (str.++ var16 var17) (str.at var18 var4) (str.to.int var17))))
(assert (< (str.to.int (str.++ var19 var2)) (str.to.int var16)))
(assert (str.prefixof var20 var0))
(assert (str.in.re (str.replace var1 var1 var1) (re.++ re.allchar re.allchar)))
(check-sat)